c ind 11 113 115 117 119 12 121 123 125 127 0
c ind 129 131 133 135 137 139 141 143 145 147 0
c ind 149 15 151 153 155 157 159 161 163 165 0
c ind 167 169 171 173 175 20 21 211 213 215 0
c ind 217 219 221 223 225 227 229 23 231 233 0
c ind 235 237 239 241 243 245 247 249 25 251 0
c ind 253 255 257 259 261 263 265 267 269 27 0
c ind 271 273 306 308 310 312 314 316 318 320 0
c ind 322 324 326 328 330 332 334 336 338 340 0
c ind 342 344 346 348 350 352 354 356 358 36 0
c ind 360 362 364 366 368 38 40 403 405 407 0
c ind 409 411 413 415 417 419 42 421 423 425 0
c ind 427 429 431 433 435 437 439 441 443 445 0
c ind 447 449 451 453 455 457 459 46 461 463 0
c ind 465 469 472 49 51 526 625 627 629 631 0
c ind 633 635 637 639 641 643 645 647 649 651 0
c ind 653 655 657 659 661 663 665 667 669 671 0
c ind 673 675 677 679 681 683 685 687 7 787 0
c ind 789 791 793 795 797 799 8 801 803 805 0
c ind 807 809 811 813 815 817 819 821 823 825 0
c ind 827 829 831 833 835 837 839 841 843 845 0
c ind 847 849 0
p cnf 849 2253
-1 2 0
-1 369 0
-10 -11 12 0
-10 -12 11 0
-100 101 0
-100 136 0
-101 102 0
-101 134 0
-102 103 0
-102 132 0
-103 104 0
-103 130 0
-104 105 0
-104 128 0
-105 106 0
-105 126 0
-106 107 0
-106 124 0
-107 108 0
-107 122 0
-108 109 0
-108 120 0
-109 110 0
-109 118 0
-110 111 0
-110 116 0
-111 112 0
-111 114 0
-112 -113 15 0
-112 -15 113 0
-114 -115 15 0
-114 -15 115 0
-116 -117 15 0
-116 -15 117 0
-118 -119 15 0
-118 -15 119 0
-120 -121 15 0
-120 -15 121 0
-122 -123 15 0
-122 -15 123 0
-124 -125 15 0
-124 -15 125 0
-126 -127 15 0
-126 -15 127 0
-128 -129 15 0
-128 -15 129 0
-13 -14 16 0
-13 14 28 0
-130 -131 15 0
-130 -15 131 0
-132 -133 15 0
-132 -15 133 0
-134 -135 15 0
-134 -15 135 0
-136 -137 15 0
-136 -15 137 0
-138 -139 15 0
-138 -15 139 0
-14 -11 15 0
-14 -15 11 0
-140 -141 15 0
-140 -15 141 0
-142 -143 15 0
-142 -15 143 0
-144 -145 21 0
-144 -21 145 0
-146 -147 21 0
-146 -21 147 0
-148 -149 21 0
-148 -21 149 0
-150 -151 21 0
-150 -21 151 0
-152 -153 21 0
-152 -21 153 0
-154 -155 21 0
-154 -21 155 0
-156 -157 21 0
-156 -21 157 0
-158 -159 21 0
-158 -21 159 0
-16 17 0
-16 26 0
-160 -161 21 0
-160 -21 161 0
-162 -163 21 0
-162 -21 163 0
-164 -165 21 0
-164 -21 165 0
-166 -167 21 0
-166 -21 167 0
-168 -169 21 0
-168 -21 169 0
-17 18 0
-17 24 0
-170 -171 21 0
-170 -21 171 0
-172 -173 21 0
-172 -21 173 0
-174 -175 21 0
-174 -21 175 0
-176 -29 177 0
-176 29 274 0
-177 -32 178 0
-177 32 274 0
-178 -44 179 0
-178 44 274 0
-179 180 0
-179 272 0
-18 19 0
-18 22 0
-180 181 0
-180 270 0
-181 182 0
-181 268 0
-182 183 0
-182 266 0
-183 184 0
-183 264 0
-184 185 0
-184 262 0
-185 186 0
-185 260 0
-186 187 0
-186 258 0
-187 188 0
-187 256 0
-188 189 0
-188 254 0
-189 190 0
-189 252 0
-19 -20 21 0
-19 -21 20 0
-190 191 0
-190 250 0
-191 192 0
-191 248 0
-192 193 0
-192 246 0
-193 194 0
-193 244 0
-194 195 0
-194 242 0
-195 196 0
-195 240 0
-196 197 0
-196 238 0
-197 198 0
-197 236 0
-198 199 0
-198 234 0
-199 200 0
-199 232 0
-2 3 0
-2 79 0
-200 201 0
-200 230 0
-201 202 0
-201 228 0
-202 203 0
-202 226 0
-203 204 0
-203 224 0
-204 205 0
-204 222 0
-205 206 0
-205 220 0
-206 207 0
-206 218 0
-207 208 0
-207 216 0
-208 209 0
-208 214 0
-209 210 0
-209 212 0
-21 0
-210 -113 211 0
-210 -211 113 0
-212 -115 213 0
-212 -213 115 0
-214 -117 215 0
-214 -215 117 0
-216 -119 217 0
-216 -217 119 0
-218 -121 219 0
-218 -219 121 0
-22 -21 23 0
-22 -23 21 0
-220 -123 221 0
-220 -221 123 0
-222 -125 223 0
-222 -223 125 0
-224 -127 225 0
-224 -225 127 0
-226 -129 227 0
-226 -227 129 0
-228 -131 229 0
-228 -229 131 0
-230 -133 231 0
-230 -231 133 0
-232 -135 233 0
-232 -233 135 0
-234 -137 235 0
-234 -235 137 0
-236 -139 237 0
-236 -237 139 0
-238 -141 239 0
-238 -239 141 0
-24 -21 25 0
-24 -25 21 0
-240 -143 241 0
-240 -241 143 0
-242 -145 243 0
-242 -243 145 0
-244 -147 245 0
-244 -245 147 0
-246 -149 247 0
-246 -247 149 0
-248 -151 249 0
-248 -249 151 0
-250 -153 251 0
-250 -251 153 0
-252 -155 253 0
-252 -253 155 0
-254 -157 255 0
-254 -255 157 0
-256 -159 257 0
-256 -257 159 0
-258 -161 259 0
-258 -259 161 0
-26 -21 27 0
-26 -27 21 0
-260 -163 261 0
-260 -261 163 0
-262 -165 263 0
-262 -263 165 0
-264 -167 265 0
-264 -265 167 0
-266 -169 267 0
-266 -267 169 0
-268 -171 269 0
-268 -269 171 0
-270 -173 271 0
-270 -271 173 0
-272 -175 273 0
-272 -273 175 0
-274 275 0
-274 367 0
-275 276 0
-275 365 0
-276 277 0
-276 363 0
-277 278 0
-277 361 0
-278 279 0
-278 359 0
-279 280 0
-279 357 0
-28 -29 31 0
-28 29 72 0
-280 281 0
-280 355 0
-281 282 0
-281 353 0
-282 283 0
-282 351 0
-283 284 0
-283 349 0
-284 285 0
-284 347 0
-285 286 0
-285 345 0
-286 287 0
-286 343 0
-287 288 0
-287 341 0
-288 289 0
-288 339 0
-289 290 0
-289 337 0
-29 30 0
-29 5 0
-290 291 0
-290 335 0
-291 292 0
-291 333 0
-292 293 0
-292 331 0
-293 294 0
-293 329 0
-294 295 0
-294 327 0
-295 296 0
-295 325 0
-296 297 0
-296 323 0
-297 298 0
-297 321 0
-298 299 0
-298 319 0
-299 300 0
-299 317 0
-3 -4 13 0
-3 4 72 0
-30 -15 7 0
-30 -7 15 0
-300 301 0
-300 315 0
-301 302 0
-301 313 0
-302 303 0
-302 311 0
-303 304 0
-303 309 0
-304 305 0
-304 307 0
-305 -113 306 0
-305 -306 113 0
-307 -115 308 0
-307 -308 115 0
-309 -117 310 0
-309 -310 117 0
-31 -32 43 0
-31 32 56 0
-311 -119 312 0
-311 -312 119 0
-313 -121 314 0
-313 -314 121 0
-315 -123 316 0
-315 -316 123 0
-317 -125 318 0
-317 -318 125 0
-319 -127 320 0
-319 -320 127 0
-32 33 0
-32 41 0
-321 -129 322 0
-321 -322 129 0
-323 -131 324 0
-323 -324 131 0
-325 -133 326 0
-325 -326 133 0
-327 -135 328 0
-327 -328 135 0
-329 -137 330 0
-329 -330 137 0
-33 34 0
-33 39 0
-331 -139 332 0
-331 -332 139 0
-333 -141 334 0
-333 -334 141 0
-335 -143 336 0
-335 -336 143 0
-337 -145 338 0
-337 -338 145 0
-339 -147 340 0
-339 -340 147 0
-34 35 0
-34 37 0
-341 -149 342 0
-341 -342 149 0
-343 -151 344 0
-343 -344 151 0
-345 -153 346 0
-345 -346 153 0
-347 -155 348 0
-347 -348 155 0
-349 -157 350 0
-349 -350 157 0
-35 -21 36 0
-35 -36 21 0
-351 -159 352 0
-351 -352 159 0
-353 -161 354 0
-353 -354 161 0
-355 -163 356 0
-355 -356 163 0
-357 -165 358 0
-357 -358 165 0
-359 -167 360 0
-359 -360 167 0
-361 -169 362 0
-361 -362 169 0
-363 -171 364 0
-363 -364 171 0
-365 -173 366 0
-365 -366 173 0
-367 -175 368 0
-367 -368 175 0
-369 -4 370 0
-369 4 755 0
-37 -21 38 0
-37 -38 21 0
-370 -14 371 0
-370 14 466 0
-371 372 0
-371 464 0
-372 373 0
-372 462 0
-373 374 0
-373 460 0
-374 375 0
-374 458 0
-375 376 0
-375 456 0
-376 377 0
-376 454 0
-377 378 0
-377 452 0
-378 379 0
-378 450 0
-379 380 0
-379 448 0
-380 381 0
-380 446 0
-381 382 0
-381 444 0
-382 383 0
-382 442 0
-383 384 0
-383 440 0
-384 385 0
-384 438 0
-385 386 0
-385 436 0
-386 387 0
-386 434 0
-387 388 0
-387 432 0
-388 389 0
-388 430 0
-389 390 0
-389 428 0
-39 -21 40 0
-39 -40 21 0
-390 391 0
-390 426 0
-391 392 0
-391 424 0
-392 393 0
-392 422 0
-393 394 0
-393 420 0
-394 395 0
-394 418 0
-395 396 0
-395 416 0
-396 397 0
-396 414 0
-397 398 0
-397 412 0
-398 399 0
-398 410 0
-399 400 0
-399 408 0
-4 5 9 0
-400 401 0
-400 406 0
-401 402 0
-401 404 0
-402 -15 403 0
-402 -403 15 0
-404 -15 405 0
-404 -405 15 0
-406 -15 407 0
-406 -407 15 0
-408 -15 409 0
-408 -409 15 0
-41 -21 42 0
-41 -42 21 0
-410 -15 411 0
-410 -411 15 0
-412 -15 413 0
-412 -413 15 0
-414 -15 415 0
-414 -415 15 0
-416 -15 417 0
-416 -417 15 0
-418 -15 419 0
-418 -419 15 0
-420 -15 421 0
-420 -421 15 0
-422 -15 423 0
-422 -423 15 0
-424 -15 425 0
-424 -425 15 0
-426 -15 427 0
-426 -427 15 0
-428 -15 429 0
-428 -429 15 0
-43 -44 52 0
-43 44 16 0
-430 -15 431 0
-430 -431 15 0
-432 -15 433 0
-432 -433 15 0
-434 -21 435 0
-434 -435 21 0
-436 -21 437 0
-436 -437 21 0
-438 -21 439 0
-438 -439 21 0
-44 45 47 0
-440 -21 441 0
-440 -441 21 0
-442 -21 443 0
-442 -443 21 0
-444 -21 445 0
-444 -445 21 0
-446 -21 447 0
-446 -447 21 0
-448 -21 449 0
-448 -449 21 0
-45 -15 46 0
-45 -46 15 0
-450 -21 451 0
-450 -451 21 0
-452 -21 453 0
-452 -453 21 0
-454 -21 455 0
-454 -455 21 0
-456 -21 457 0
-456 -457 21 0
-458 -21 459 0
-458 -459 21 0
-460 -21 461 0
-460 -461 21 0
-462 -21 463 0
-462 -463 21 0
-464 -21 465 0
-464 -465 21 0
-466 -29 467 0
-466 29 755 0
-467 -468 371 0
-467 468 470 0
-468 -15 469 0
-468 -469 15 0
-47 48 0
-47 50 0
-470 -471 473 0
-470 471 520 0
-471 -15 472 0
-471 -472 15 0
-473 464 0
-473 474 0
-474 462 0
-474 475 0
-475 460 0
-475 476 0
-476 458 0
-476 477 0
-477 456 0
-477 478 0
-478 454 0
-478 479 0
-479 452 0
-479 480 0
-48 -15 49 0
-48 -49 15 0
-480 450 0
-480 481 0
-481 448 0
-481 482 0
-482 446 0
-482 483 0
-483 444 0
-483 484 0
-484 442 0
-484 485 0
-485 440 0
-485 486 0
-486 438 0
-486 487 0
-487 436 0
-487 488 0
-488 434 0
-488 489 0
-489 490 0
-489 519 0
-490 491 0
-490 518 0
-491 492 0
-491 517 0
-492 493 0
-492 516 0
-493 494 0
-493 515 0
-494 495 0
-494 514 0
-495 496 0
-495 513 0
-496 497 0
-496 512 0
-497 498 0
-497 511 0
-498 499 0
-498 510 0
-499 500 0
-499 509 0
-5 -6 0
-50 -15 51 0
-50 -51 15 0
-500 501 0
-500 508 0
-501 502 0
-501 507 0
-502 503 0
-502 506 0
-503 504 0
-503 505 0
-504 -21 403 0
-504 -403 21 0
-505 -21 405 0
-505 -405 21 0
-506 -21 407 0
-506 -407 21 0
-507 -21 409 0
-507 -409 21 0
-508 -21 411 0
-508 -411 21 0
-509 -21 413 0
-509 -413 21 0
-510 -21 415 0
-510 -415 21 0
-511 -21 417 0
-511 -417 21 0
-512 -21 419 0
-512 -419 21 0
-513 -21 421 0
-513 -421 21 0
-514 -21 423 0
-514 -423 21 0
-515 -21 425 0
-515 -425 21 0
-516 -21 427 0
-516 -427 21 0
-517 -21 429 0
-517 -429 21 0
-518 -21 431 0
-518 -431 21 0
-519 -21 433 0
-519 -433 21 0
-52 26 0
-52 53 0
-520 -521 527 0
-520 521 590 0
-521 45 0
-521 522 0
-522 523 0
-522 67 0
-523 524 0
-523 67 0
-524 525 0
-524 67 0
-525 -21 526 0
-525 -526 21 0
-527 528 0
-527 589 0
-528 529 0
-528 588 0
-529 530 0
-529 587 0
-53 24 0
-53 54 0
-530 531 0
-530 586 0
-531 532 0
-531 585 0
-532 533 0
-532 584 0
-533 534 0
-533 583 0
-534 535 0
-534 582 0
-535 536 0
-535 581 0
-536 537 0
-536 580 0
-537 538 0
-537 579 0
-538 539 0
-538 578 0
-539 540 0
-539 577 0
-54 22 0
-54 55 0
-540 541 0
-540 576 0
-541 542 0
-541 575 0
-542 543 0
-542 574 0
-543 544 0
-543 573 0
-544 545 0
-544 572 0
-545 546 0
-545 571 0
-546 547 0
-546 570 0
-547 548 0
-547 569 0
-548 549 0
-548 568 0
-549 550 0
-549 567 0
-55 -15 20 0
-55 -20 15 0
-550 551 0
-550 566 0
-551 552 0
-551 565 0
-552 553 0
-552 564 0
-553 554 0
-553 563 0
-554 555 0
-554 562 0
-555 556 0
-555 561 0
-556 557 0
-556 560 0
-557 558 0
-557 559 0
-558 -306 403 0
-558 -403 306 0
-559 -308 405 0
-559 -405 308 0
-56 -57 61 0
-56 57 16 0
-560 -310 407 0
-560 -407 310 0
-561 -312 409 0
-561 -409 312 0
-562 -314 411 0
-562 -411 314 0
-563 -316 413 0
-563 -413 316 0
-564 -318 415 0
-564 -415 318 0
-565 -320 417 0
-565 -417 320 0
-566 -322 419 0
-566 -419 322 0
-567 -324 421 0
-567 -421 324 0
-568 -326 423 0
-568 -423 326 0
-569 -328 425 0
-569 -425 328 0
-57 41 0
-57 58 0
-570 -330 427 0
-570 -427 330 0
-571 -332 429 0
-571 -429 332 0
-572 -334 431 0
-572 -431 334 0
-573 -336 433 0
-573 -433 336 0
-574 -338 435 0
-574 -435 338 0
-575 -340 437 0
-575 -437 340 0
-576 -342 439 0
-576 -439 342 0
-577 -344 441 0
-577 -441 344 0
-578 -346 443 0
-578 -443 346 0
-579 -348 445 0
-579 -445 348 0
-58 39 0
-58 59 0
-580 -350 447 0
-580 -447 350 0
-581 -352 449 0
-581 -449 352 0
-582 -354 451 0
-582 -451 354 0
-583 -356 453 0
-583 -453 356 0
-584 -358 455 0
-584 -455 358 0
-585 -360 457 0
-585 -457 360 0
-586 -362 459 0
-586 -459 362 0
-587 -364 461 0
-587 -461 364 0
-588 -366 463 0
-588 -463 366 0
-589 -368 465 0
-589 -465 368 0
-59 37 0
-59 60 0
-590 -591 593 0
-590 591 688 0
-591 45 0
-591 592 0
-592 -15 526 0
-592 -526 15 0
-593 594 0
-593 686 0
-594 595 0
-594 684 0
-595 596 0
-595 682 0
-596 597 0
-596 680 0
-597 598 0
-597 678 0
-598 599 0
-598 676 0
-599 600 0
-599 674 0
-6 -7 8 0
-6 -8 7 0
-60 -15 36 0
-60 -36 15 0
-600 601 0
-600 672 0
-601 602 0
-601 670 0
-602 603 0
-602 668 0
-603 604 0
-603 666 0
-604 605 0
-604 664 0
-605 606 0
-605 662 0
-606 607 0
-606 660 0
-607 608 0
-607 658 0
-608 609 0
-608 656 0
-609 610 0
-609 654 0
-61 -62 16 0
-61 62 52 0
-610 611 0
-610 652 0
-611 612 0
-611 650 0
-612 613 0
-612 648 0
-613 614 0
-613 646 0
-614 615 0
-614 644 0
-615 616 0
-615 642 0
-616 617 0
-616 640 0
-617 618 0
-617 638 0
-618 619 0
-618 636 0
-619 620 0
-619 634 0
-62 63 0
-62 68 0
-620 621 0
-620 632 0
-621 622 0
-621 630 0
-622 623 0
-622 628 0
-623 624 0
-623 626 0
-624 -403 625 0
-624 -625 403 0
-626 -405 627 0
-626 -627 405 0
-628 -407 629 0
-628 -629 407 0
-63 64 0
-63 67 0
-630 -409 631 0
-630 -631 409 0
-632 -411 633 0
-632 -633 411 0
-634 -413 635 0
-634 -635 413 0
-636 -415 637 0
-636 -637 415 0
-638 -417 639 0
-638 -639 417 0
-64 65 0
-64 67 0
-640 -419 641 0
-640 -641 419 0
-642 -421 643 0
-642 -643 421 0
-644 -423 645 0
-644 -645 423 0
-646 -425 647 0
-646 -647 425 0
-648 -427 649 0
-648 -649 427 0
-65 66 0
-65 67 0
-650 -429 651 0
-650 -651 429 0
-652 -431 653 0
-652 -653 431 0
-654 -433 655 0
-654 -655 433 0
-656 -435 657 0
-656 -657 435 0
-658 -437 659 0
-658 -659 437 0
-66 -21 46 0
-66 -46 21 0
-660 -439 661 0
-660 -661 439 0
-662 -441 663 0
-662 -663 441 0
-664 -443 665 0
-664 -665 443 0
-666 -445 667 0
-666 -667 445 0
-668 -447 669 0
-668 -669 447 0
-67 -21 21 0
-670 -449 671 0
-670 -671 449 0
-672 -451 673 0
-672 -673 451 0
-674 -453 675 0
-674 -675 453 0
-676 -455 677 0
-676 -677 455 0
-678 -457 679 0
-678 -679 457 0
-68 67 0
-68 69 0
-680 -459 681 0
-680 -681 459 0
-682 -461 683 0
-682 -683 461 0
-684 -463 685 0
-684 -685 463 0
-686 -465 687 0
-686 -687 465 0
-688 -689 527 0
-688 689 690 0
-689 47 0
-689 522 0
-69 67 0
-69 70 0
-690 -691 593 0
-690 691 692 0
-691 47 0
-691 592 0
-692 693 0
-692 754 0
-693 694 0
-693 753 0
-694 695 0
-694 752 0
-695 696 0
-695 751 0
-696 697 0
-696 750 0
-697 698 0
-697 749 0
-698 699 0
-698 748 0
-699 700 0
-699 747 0
-70 67 0
-70 71 0
-700 701 0
-700 746 0
-701 702 0
-701 745 0
-702 703 0
-702 744 0
-703 704 0
-703 743 0
-704 705 0
-704 742 0
-705 706 0
-705 741 0
-706 707 0
-706 740 0
-707 708 0
-707 739 0
-708 709 0
-708 738 0
-709 710 0
-709 737 0
-71 -21 51 0
-71 -51 21 0
-710 711 0
-710 736 0
-711 712 0
-711 735 0
-712 713 0
-712 734 0
-713 714 0
-713 733 0
-714 715 0
-714 732 0
-715 716 0
-715 731 0
-716 717 0
-716 730 0
-717 718 0
-717 729 0
-718 719 0
-718 728 0
-719 720 0
-719 727 0
-72 73 0
-72 78 0
-720 721 0
-720 726 0
-721 722 0
-721 725 0
-722 723 0
-722 724 0
-723 -211 403 0
-723 -403 211 0
-724 -213 405 0
-724 -405 213 0
-725 -215 407 0
-725 -407 215 0
-726 -217 409 0
-726 -409 217 0
-727 -219 411 0
-727 -411 219 0
-728 -221 413 0
-728 -413 221 0
-729 -223 415 0
-729 -415 223 0
-73 74 0
-73 77 0
-730 -225 417 0
-730 -417 225 0
-731 -227 419 0
-731 -419 227 0
-732 -229 421 0
-732 -421 229 0
-733 -231 423 0
-733 -423 231 0
-734 -233 425 0
-734 -425 233 0
-735 -235 427 0
-735 -427 235 0
-736 -237 429 0
-736 -429 237 0
-737 -239 431 0
-737 -431 239 0
-738 -241 433 0
-738 -433 241 0
-739 -243 435 0
-739 -435 243 0
-74 75 0
-74 76 0
-740 -245 437 0
-740 -437 245 0
-741 -247 439 0
-741 -439 247 0
-742 -249 441 0
-742 -441 249 0
-743 -251 443 0
-743 -443 251 0
-744 -253 445 0
-744 -445 253 0
-745 -255 447 0
-745 -447 255 0
-746 -257 449 0
-746 -449 257 0
-747 -259 451 0
-747 -451 259 0
-748 -261 453 0
-748 -453 261 0
-749 -263 455 0
-749 -455 263 0
-75 -20 36 0
-75 -36 20 0
-750 -265 457 0
-750 -457 265 0
-751 -267 459 0
-751 -459 267 0
-752 -269 461 0
-752 -461 269 0
-753 -271 463 0
-753 -463 271 0
-754 -273 465 0
-754 -465 273 0
-755 756 0
-755 848 0
-756 757 0
-756 846 0
-757 758 0
-757 844 0
-758 759 0
-758 842 0
-759 760 0
-759 840 0
-76 -23 38 0
-76 -38 23 0
-760 761 0
-760 838 0
-761 762 0
-761 836 0
-762 763 0
-762 834 0
-763 764 0
-763 832 0
-764 765 0
-764 830 0
-765 766 0
-765 828 0
-766 767 0
-766 826 0
-767 768 0
-767 824 0
-768 769 0
-768 822 0
-769 770 0
-769 820 0
-77 -25 40 0
-77 -40 25 0
-770 771 0
-770 818 0
-771 772 0
-771 816 0
-772 773 0
-772 814 0
-773 774 0
-773 812 0
-774 775 0
-774 810 0
-775 776 0
-775 808 0
-776 777 0
-776 806 0
-777 778 0
-777 804 0
-778 779 0
-778 802 0
-779 780 0
-779 800 0
-78 -27 42 0
-78 -42 27 0
-780 781 0
-780 798 0
-781 782 0
-781 796 0
-782 783 0
-782 794 0
-783 784 0
-783 792 0
-784 785 0
-784 790 0
-785 786 0
-785 788 0
-786 -403 787 0
-786 -787 403 0
-788 -405 789 0
-788 -789 405 0
-79 -4 80 0
-79 4 274 0
-790 -407 791 0
-790 -791 407 0
-792 -409 793 0
-792 -793 409 0
-794 -411 795 0
-794 -795 411 0
-796 -413 797 0
-796 -797 413 0
-798 -415 799 0
-798 -799 415 0
-80 -14 81 0
-80 14 176 0
-800 -417 801 0
-800 -801 417 0
-802 -419 803 0
-802 -803 419 0
-804 -421 805 0
-804 -805 421 0
-806 -423 807 0
-806 -807 423 0
-808 -425 809 0
-808 -809 425 0
-81 174 0
-81 82 0
-810 -427 811 0
-810 -811 427 0
-812 -429 813 0
-812 -813 429 0
-814 -431 815 0
-814 -815 431 0
-816 -433 817 0
-816 -817 433 0
-818 -435 819 0
-818 -819 435 0
-82 172 0
-82 83 0
-820 -437 821 0
-820 -821 437 0
-822 -439 823 0
-822 -823 439 0
-824 -441 825 0
-824 -825 441 0
-826 -443 827 0
-826 -827 443 0
-828 -445 829 0
-828 -829 445 0
-83 170 0
-83 84 0
-830 -447 831 0
-830 -831 447 0
-832 -449 833 0
-832 -833 449 0
-834 -451 835 0
-834 -835 451 0
-836 -453 837 0
-836 -837 453 0
-838 -455 839 0
-838 -839 455 0
-84 168 0
-84 85 0
-840 -457 841 0
-840 -841 457 0
-842 -459 843 0
-842 -843 459 0
-844 -461 845 0
-844 -845 461 0
-846 -463 847 0
-846 -847 463 0
-848 -465 849 0
-848 -849 465 0
-85 166 0
-85 86 0
-86 164 0
-86 87 0
-87 162 0
-87 88 0
-88 160 0
-88 89 0
-89 158 0
-89 90 0
-9 -10 0
-90 156 0
-90 91 0
-91 154 0
-91 92 0
-92 152 0
-92 93 0
-93 150 0
-93 94 0
-94 148 0
-94 95 0
-95 146 0
-95 96 0
-96 144 0
-96 97 0
-97 142 0
-97 98 0
-98 140 0
-98 99 0
-99 100 0
-99 138 0
1 -2 -369 0
1 0
10 -11 -12 0
10 11 12 0
100 -101 -136 0
101 -102 -134 0
102 -103 -132 0
103 -104 -130 0
104 -105 -128 0
105 -106 -126 0
106 -107 -124 0
107 -108 -122 0
108 -109 -120 0
109 -110 -118 0
110 -111 -116 0
111 -112 -114 0
112 -113 -15 0
112 113 15 0
114 -115 -15 0
114 115 15 0
116 -117 -15 0
116 117 15 0
118 -119 -15 0
118 119 15 0
120 -121 -15 0
120 121 15 0
122 -123 -15 0
122 123 15 0
124 -125 -15 0
124 125 15 0
126 -127 -15 0
126 127 15 0
128 -129 -15 0
128 129 15 0
13 -14 -16 0
13 -16 -28 0
13 14 -28 0
130 -131 -15 0
130 131 15 0
132 -133 -15 0
132 133 15 0
134 -135 -15 0
134 135 15 0
136 -137 -15 0
136 137 15 0
138 -139 -15 0
138 139 15 0
14 -11 -15 0
14 11 15 0
140 -141 -15 0
140 141 15 0
142 -143 -15 0
142 143 15 0
144 -145 -21 0
144 145 21 0
146 -147 -21 0
146 147 21 0
148 -149 -21 0
148 149 21 0
15 0
150 -151 -21 0
150 151 21 0
152 -153 -21 0
152 153 21 0
154 -155 -21 0
154 155 21 0
156 -157 -21 0
156 157 21 0
158 -159 -21 0
158 159 21 0
16 -17 -26 0
160 -161 -21 0
160 161 21 0
162 -163 -21 0
162 163 21 0
164 -165 -21 0
164 165 21 0
166 -167 -21 0
166 167 21 0
168 -169 -21 0
168 169 21 0
17 -18 -24 0
170 -171 -21 0
170 171 21 0
172 -173 -21 0
172 173 21 0
174 -175 -21 0
174 175 21 0
176 -177 -274 0
176 -29 -177 0
176 29 -274 0
177 -178 -274 0
177 -32 -178 0
177 32 -274 0
178 -179 -274 0
178 -44 -179 0
178 44 -274 0
179 -180 -272 0
18 -19 -22 0
180 -181 -270 0
181 -182 -268 0
182 -183 -266 0
183 -184 -264 0
184 -185 -262 0
185 -186 -260 0
186 -187 -258 0
187 -188 -256 0
188 -189 -254 0
189 -190 -252 0
19 -20 -21 0
19 20 21 0
190 -191 -250 0
191 -192 -248 0
192 -193 -246 0
193 -194 -244 0
194 -195 -242 0
195 -196 -240 0
196 -197 -238 0
197 -198 -236 0
198 -199 -234 0
199 -200 -232 0
2 -3 -79 0
200 -201 -230 0
201 -202 -228 0
202 -203 -226 0
203 -204 -224 0
204 -205 -222 0
205 -206 -220 0
206 -207 -218 0
207 -208 -216 0
208 -209 -214 0
209 -210 -212 0
210 -113 -211 0
210 113 211 0
212 -115 -213 0
212 115 213 0
214 -117 -215 0
214 117 215 0
216 -119 -217 0
216 119 217 0
218 -121 -219 0
218 121 219 0
22 -23 -21 0
22 23 21 0
220 -123 -221 0
220 123 221 0
222 -125 -223 0
222 125 223 0
224 -127 -225 0
224 127 225 0
226 -129 -227 0
226 129 227 0
228 -131 -229 0
228 131 229 0
230 -133 -231 0
230 133 231 0
232 -135 -233 0
232 135 233 0
234 -137 -235 0
234 137 235 0
236 -139 -237 0
236 139 237 0
238 -141 -239 0
238 141 239 0
24 -25 -21 0
24 25 21 0
240 -143 -241 0
240 143 241 0
242 -145 -243 0
242 145 243 0
244 -147 -245 0
244 147 245 0
246 -149 -247 0
246 149 247 0
248 -151 -249 0
248 151 249 0
250 -153 -251 0
250 153 251 0
252 -155 -253 0
252 155 253 0
254 -157 -255 0
254 157 255 0
256 -159 -257 0
256 159 257 0
258 -161 -259 0
258 161 259 0
26 -27 -21 0
26 27 21 0
260 -163 -261 0
260 163 261 0
262 -165 -263 0
262 165 263 0
264 -167 -265 0
264 167 265 0
266 -169 -267 0
266 169 267 0
268 -171 -269 0
268 171 269 0
270 -173 -271 0
270 173 271 0
272 -175 -273 0
272 175 273 0
274 -275 -367 0
275 -276 -365 0
276 -277 -363 0
277 -278 -361 0
278 -279 -359 0
279 -280 -357 0
28 -29 -31 0
28 -31 -72 0
28 29 -72 0
280 -281 -355 0
281 -282 -353 0
282 -283 -351 0
283 -284 -349 0
284 -285 -347 0
285 -286 -345 0
286 -287 -343 0
287 -288 -341 0
288 -289 -339 0
289 -290 -337 0
29 -5 -30 0
290 -291 -335 0
291 -292 -333 0
292 -293 -331 0
293 -294 -329 0
294 -295 -327 0
295 -296 -325 0
296 -297 -323 0
297 -298 -321 0
298 -299 -319 0
299 -300 -317 0
3 -13 -72 0
3 -4 -13 0
3 4 -72 0
30 -7 -15 0
30 7 15 0
300 -301 -315 0
301 -302 -313 0
302 -303 -311 0
303 -304 -309 0
304 -305 -307 0
305 -113 -306 0
305 113 306 0
307 -115 -308 0
307 115 308 0
309 -117 -310 0
309 117 310 0
31 -32 -43 0
31 -43 -56 0
31 32 -56 0
311 -119 -312 0
311 119 312 0
313 -121 -314 0
313 121 314 0
315 -123 -316 0
315 123 316 0
317 -125 -318 0
317 125 318 0
319 -127 -320 0
319 127 320 0
32 -33 -41 0
321 -129 -322 0
321 129 322 0
323 -131 -324 0
323 131 324 0
325 -133 -326 0
325 133 326 0
327 -135 -328 0
327 135 328 0
329 -137 -330 0
329 137 330 0
33 -34 -39 0
331 -139 -332 0
331 139 332 0
333 -141 -334 0
333 141 334 0
335 -143 -336 0
335 143 336 0
337 -145 -338 0
337 145 338 0
339 -147 -340 0
339 147 340 0
34 -35 -37 0
341 -149 -342 0
341 149 342 0
343 -151 -344 0
343 151 344 0
345 -153 -346 0
345 153 346 0
347 -155 -348 0
347 155 348 0
349 -157 -350 0
349 157 350 0
35 -36 -21 0
35 36 21 0
351 -159 -352 0
351 159 352 0
353 -161 -354 0
353 161 354 0
355 -163 -356 0
355 163 356 0
357 -165 -358 0
357 165 358 0
359 -167 -360 0
359 167 360 0
361 -169 -362 0
361 169 362 0
363 -171 -364 0
363 171 364 0
365 -173 -366 0
365 173 366 0
367 -175 -368 0
367 175 368 0
369 -370 -755 0
369 -4 -370 0
369 4 -755 0
37 -38 -21 0
37 38 21 0
370 -14 -371 0
370 -371 -466 0
370 14 -466 0
371 -372 -464 0
372 -373 -462 0
373 -374 -460 0
374 -375 -458 0
375 -376 -456 0
376 -377 -454 0
377 -378 -452 0
378 -379 -450 0
379 -380 -448 0
380 -381 -446 0
381 -382 -444 0
382 -383 -442 0
383 -384 -440 0
384 -385 -438 0
385 -386 -436 0
386 -387 -434 0
387 -388 -432 0
388 -389 -430 0
389 -390 -428 0
39 -40 -21 0
39 40 21 0
390 -391 -426 0
391 -392 -424 0
392 -393 -422 0
393 -394 -420 0
394 -395 -418 0
395 -396 -416 0
396 -397 -414 0
397 -398 -412 0
398 -399 -410 0
399 -400 -408 0
4 -5 0
4 -9 0
400 -401 -406 0
401 -402 -404 0
402 -403 -15 0
402 403 15 0
404 -405 -15 0
404 405 15 0
406 -407 -15 0
406 407 15 0
408 -409 -15 0
408 409 15 0
41 -42 -21 0
41 42 21 0
410 -411 -15 0
410 411 15 0
412 -413 -15 0
412 413 15 0
414 -415 -15 0
414 415 15 0
416 -417 -15 0
416 417 15 0
418 -419 -15 0
418 419 15 0
420 -421 -15 0
420 421 15 0
422 -423 -15 0
422 423 15 0
424 -425 -15 0
424 425 15 0
426 -427 -15 0
426 427 15 0
428 -429 -15 0
428 429 15 0
43 -44 -52 0
43 -52 -16 0
43 44 -16 0
430 -431 -15 0
430 431 15 0
432 -433 -15 0
432 433 15 0
434 -435 -21 0
434 435 21 0
436 -437 -21 0
436 437 21 0
438 -439 -21 0
438 439 21 0
44 -45 0
44 -47 0
440 -441 -21 0
440 441 21 0
442 -443 -21 0
442 443 21 0
444 -445 -21 0
444 445 21 0
446 -447 -21 0
446 447 21 0
448 -449 -21 0
448 449 21 0
45 -46 -15 0
45 46 15 0
450 -451 -21 0
450 451 21 0
452 -453 -21 0
452 453 21 0
454 -455 -21 0
454 455 21 0
456 -457 -21 0
456 457 21 0
458 -459 -21 0
458 459 21 0
460 -461 -21 0
460 461 21 0
462 -463 -21 0
462 463 21 0
464 -465 -21 0
464 465 21 0
466 -29 -467 0
466 -467 -755 0
466 29 -755 0
467 -371 -470 0
467 -468 -371 0
467 468 -470 0
468 -469 -15 0
468 469 15 0
47 -48 -50 0
470 -471 -473 0
470 -473 -520 0
470 471 -520 0
471 -472 -15 0
471 472 15 0
473 -474 -464 0
474 -475 -462 0
475 -476 -460 0
476 -477 -458 0
477 -478 -456 0
478 -479 -454 0
479 -480 -452 0
48 -49 -15 0
48 49 15 0
480 -481 -450 0
481 -482 -448 0
482 -483 -446 0
483 -484 -444 0
484 -485 -442 0
485 -486 -440 0
486 -487 -438 0
487 -488 -436 0
488 -489 -434 0
489 -490 -519 0
490 -491 -518 0
491 -492 -517 0
492 -493 -516 0
493 -494 -515 0
494 -495 -514 0
495 -496 -513 0
496 -497 -512 0
497 -498 -511 0
498 -499 -510 0
499 -500 -509 0
5 6 0
50 -51 -15 0
50 51 15 0
500 -501 -508 0
501 -502 -507 0
502 -503 -506 0
503 -504 -505 0
504 -403 -21 0
504 403 21 0
505 -405 -21 0
505 405 21 0
506 -407 -21 0
506 407 21 0
507 -409 -21 0
507 409 21 0
508 -411 -21 0
508 411 21 0
509 -413 -21 0
509 413 21 0
510 -415 -21 0
510 415 21 0
511 -417 -21 0
511 417 21 0
512 -419 -21 0
512 419 21 0
513 -421 -21 0
513 421 21 0
514 -423 -21 0
514 423 21 0
515 -425 -21 0
515 425 21 0
516 -427 -21 0
516 427 21 0
517 -429 -21 0
517 429 21 0
518 -431 -21 0
518 431 21 0
519 -433 -21 0
519 433 21 0
52 -53 -26 0
520 -521 -527 0
520 -527 -590 0
520 521 -590 0
521 -45 -522 0
522 -523 -67 0
523 -524 -67 0
524 -525 -67 0
525 -526 -21 0
525 526 21 0
527 -528 -589 0
528 -529 -588 0
529 -530 -587 0
53 -54 -24 0
530 -531 -586 0
531 -532 -585 0
532 -533 -584 0
533 -534 -583 0
534 -535 -582 0
535 -536 -581 0
536 -537 -580 0
537 -538 -579 0
538 -539 -578 0
539 -540 -577 0
54 -55 -22 0
540 -541 -576 0
541 -542 -575 0
542 -543 -574 0
543 -544 -573 0
544 -545 -572 0
545 -546 -571 0
546 -547 -570 0
547 -548 -569 0
548 -549 -568 0
549 -550 -567 0
55 -20 -15 0
55 20 15 0
550 -551 -566 0
551 -552 -565 0
552 -553 -564 0
553 -554 -563 0
554 -555 -562 0
555 -556 -561 0
556 -557 -560 0
557 -558 -559 0
558 -403 -306 0
558 403 306 0
559 -405 -308 0
559 405 308 0
56 -57 -61 0
56 -61 -16 0
56 57 -16 0
560 -407 -310 0
560 407 310 0
561 -409 -312 0
561 409 312 0
562 -411 -314 0
562 411 314 0
563 -413 -316 0
563 413 316 0
564 -415 -318 0
564 415 318 0
565 -417 -320 0
565 417 320 0
566 -419 -322 0
566 419 322 0
567 -421 -324 0
567 421 324 0
568 -423 -326 0
568 423 326 0
569 -425 -328 0
569 425 328 0
57 -58 -41 0
570 -427 -330 0
570 427 330 0
571 -429 -332 0
571 429 332 0
572 -431 -334 0
572 431 334 0
573 -433 -336 0
573 433 336 0
574 -435 -338 0
574 435 338 0
575 -437 -340 0
575 437 340 0
576 -439 -342 0
576 439 342 0
577 -441 -344 0
577 441 344 0
578 -443 -346 0
578 443 346 0
579 -445 -348 0
579 445 348 0
58 -59 -39 0
580 -447 -350 0
580 447 350 0
581 -449 -352 0
581 449 352 0
582 -451 -354 0
582 451 354 0
583 -453 -356 0
583 453 356 0
584 -455 -358 0
584 455 358 0
585 -457 -360 0
585 457 360 0
586 -459 -362 0
586 459 362 0
587 -461 -364 0
587 461 364 0
588 -463 -366 0
588 463 366 0
589 -465 -368 0
589 465 368 0
59 -60 -37 0
590 -591 -593 0
590 -593 -688 0
590 591 -688 0
591 -45 -592 0
592 -526 -15 0
592 526 15 0
593 -594 -686 0
594 -595 -684 0
595 -596 -682 0
596 -597 -680 0
597 -598 -678 0
598 -599 -676 0
599 -600 -674 0
6 -7 -8 0
6 7 8 0
60 -36 -15 0
60 36 15 0
600 -601 -672 0
601 -602 -670 0
602 -603 -668 0
603 -604 -666 0
604 -605 -664 0
605 -606 -662 0
606 -607 -660 0
607 -608 -658 0
608 -609 -656 0
609 -610 -654 0
61 -16 -52 0
61 -62 -16 0
61 62 -52 0
610 -611 -652 0
611 -612 -650 0
612 -613 -648 0
613 -614 -646 0
614 -615 -644 0
615 -616 -642 0
616 -617 -640 0
617 -618 -638 0
618 -619 -636 0
619 -620 -634 0
62 -63 -68 0
620 -621 -632 0
621 -622 -630 0
622 -623 -628 0
623 -624 -626 0
624 -403 -625 0
624 403 625 0
626 -405 -627 0
626 405 627 0
628 -407 -629 0
628 407 629 0
63 -64 -67 0
630 -409 -631 0
630 409 631 0
632 -411 -633 0
632 411 633 0
634 -413 -635 0
634 413 635 0
636 -415 -637 0
636 415 637 0
638 -417 -639 0
638 417 639 0
64 -65 -67 0
640 -419 -641 0
640 419 641 0
642 -421 -643 0
642 421 643 0
644 -423 -645 0
644 423 645 0
646 -425 -647 0
646 425 647 0
648 -427 -649 0
648 427 649 0
65 -66 -67 0
650 -429 -651 0
650 429 651 0
652 -431 -653 0
652 431 653 0
654 -433 -655 0
654 433 655 0
656 -435 -657 0
656 435 657 0
658 -437 -659 0
658 437 659 0
66 -46 -21 0
66 46 21 0
660 -439 -661 0
660 439 661 0
662 -441 -663 0
662 441 663 0
664 -443 -665 0
664 443 665 0
666 -445 -667 0
666 445 667 0
668 -447 -669 0
668 447 669 0
67 -21 -21 0
67 21 21 0
670 -449 -671 0
670 449 671 0
672 -451 -673 0
672 451 673 0
674 -453 -675 0
674 453 675 0
676 -455 -677 0
676 455 677 0
678 -457 -679 0
678 457 679 0
68 -69 -67 0
680 -459 -681 0
680 459 681 0
682 -461 -683 0
682 461 683 0
684 -463 -685 0
684 463 685 0
686 -465 -687 0
686 465 687 0
688 -527 -690 0
688 -689 -527 0
688 689 -690 0
689 -47 -522 0
69 -70 -67 0
690 -593 -692 0
690 -691 -593 0
690 691 -692 0
691 -47 -592 0
692 -693 -754 0
693 -694 -753 0
694 -695 -752 0
695 -696 -751 0
696 -697 -750 0
697 -698 -749 0
698 -699 -748 0
699 -700 -747 0
70 -71 -67 0
700 -701 -746 0
701 -702 -745 0
702 -703 -744 0
703 -704 -743 0
704 -705 -742 0
705 -706 -741 0
706 -707 -740 0
707 -708 -739 0
708 -709 -738 0
709 -710 -737 0
71 -51 -21 0
71 51 21 0
710 -711 -736 0
711 -712 -735 0
712 -713 -734 0
713 -714 -733 0
714 -715 -732 0
715 -716 -731 0
716 -717 -730 0
717 -718 -729 0
718 -719 -728 0
719 -720 -727 0
72 -73 -78 0
720 -721 -726 0
721 -722 -725 0
722 -723 -724 0
723 -403 -211 0
723 403 211 0
724 -405 -213 0
724 405 213 0
725 -407 -215 0
725 407 215 0
726 -409 -217 0
726 409 217 0
727 -411 -219 0
727 411 219 0
728 -413 -221 0
728 413 221 0
729 -415 -223 0
729 415 223 0
73 -74 -77 0
730 -417 -225 0
730 417 225 0
731 -419 -227 0
731 419 227 0
732 -421 -229 0
732 421 229 0
733 -423 -231 0
733 423 231 0
734 -425 -233 0
734 425 233 0
735 -427 -235 0
735 427 235 0
736 -429 -237 0
736 429 237 0
737 -431 -239 0
737 431 239 0
738 -433 -241 0
738 433 241 0
739 -435 -243 0
739 435 243 0
74 -75 -76 0
740 -437 -245 0
740 437 245 0
741 -439 -247 0
741 439 247 0
742 -441 -249 0
742 441 249 0
743 -443 -251 0
743 443 251 0
744 -445 -253 0
744 445 253 0
745 -447 -255 0
745 447 255 0
746 -449 -257 0
746 449 257 0
747 -451 -259 0
747 451 259 0
748 -453 -261 0
748 453 261 0
749 -455 -263 0
749 455 263 0
75 -20 -36 0
75 20 36 0
750 -457 -265 0
750 457 265 0
751 -459 -267 0
751 459 267 0
752 -461 -269 0
752 461 269 0
753 -463 -271 0
753 463 271 0
754 -465 -273 0
754 465 273 0
755 -756 -848 0
756 -757 -846 0
757 -758 -844 0
758 -759 -842 0
759 -760 -840 0
76 -23 -38 0
76 23 38 0
760 -761 -838 0
761 -762 -836 0
762 -763 -834 0
763 -764 -832 0
764 -765 -830 0
765 -766 -828 0
766 -767 -826 0
767 -768 -824 0
768 -769 -822 0
769 -770 -820 0
77 -25 -40 0
77 25 40 0
770 -771 -818 0
771 -772 -816 0
772 -773 -814 0
773 -774 -812 0
774 -775 -810 0
775 -776 -808 0
776 -777 -806 0
777 -778 -804 0
778 -779 -802 0
779 -780 -800 0
78 -27 -42 0
78 27 42 0
780 -781 -798 0
781 -782 -796 0
782 -783 -794 0
783 -784 -792 0
784 -785 -790 0
785 -786 -788 0
786 -403 -787 0
786 403 787 0
788 -405 -789 0
788 405 789 0
79 -4 -80 0
79 -80 -274 0
79 4 -274 0
790 -407 -791 0
790 407 791 0
792 -409 -793 0
792 409 793 0
794 -411 -795 0
794 411 795 0
796 -413 -797 0
796 413 797 0
798 -415 -799 0
798 415 799 0
80 -14 -81 0
80 -81 -176 0
80 14 -176 0
800 -417 -801 0
800 417 801 0
802 -419 -803 0
802 419 803 0
804 -421 -805 0
804 421 805 0
806 -423 -807 0
806 423 807 0
808 -425 -809 0
808 425 809 0
81 -82 -174 0
810 -427 -811 0
810 427 811 0
812 -429 -813 0
812 429 813 0
814 -431 -815 0
814 431 815 0
816 -433 -817 0
816 433 817 0
818 -435 -819 0
818 435 819 0
82 -83 -172 0
820 -437 -821 0
820 437 821 0
822 -439 -823 0
822 439 823 0
824 -441 -825 0
824 441 825 0
826 -443 -827 0
826 443 827 0
828 -445 -829 0
828 445 829 0
83 -84 -170 0
830 -447 -831 0
830 447 831 0
832 -449 -833 0
832 449 833 0
834 -451 -835 0
834 451 835 0
836 -453 -837 0
836 453 837 0
838 -455 -839 0
838 455 839 0
84 -85 -168 0
840 -457 -841 0
840 457 841 0
842 -459 -843 0
842 459 843 0
844 -461 -845 0
844 461 845 0
846 -463 -847 0
846 463 847 0
848 -465 -849 0
848 465 849 0
85 -86 -166 0
86 -87 -164 0
87 -88 -162 0
88 -89 -160 0
89 -90 -158 0
9 10 0
90 -91 -156 0
91 -92 -154 0
92 -93 -152 0
93 -94 -150 0
94 -95 -148 0
95 -96 -146 0
96 -97 -144 0
97 -98 -142 0
98 -99 -140 0
99 -100 -138 0
